p edge 3117 3062
e 1 2
e 1 3
e 1 4
e 1 5
e 1 6
e 1 7
e 1 8
e 1 9
e 1 10
e 1 11
e 1 12
e 1 13
e 1 14
e 1 15
e 1 16
e 1 17
e 1 18
e 1 19
e 1 20
e 1 21
e 1 22
e 1 23
e 1 24
e 1 25
e 1 26
e 1 27
e 1 28
e 1 29
e 30 31
e 30 32
e 30 33
e 30 34
e 30 35
e 30 36
e 30 37
e 30 38
e 30 39
e 30 40
e 30 41
e 30 42
e 30 43
e 30 44
e 30 45
e 30 46
e 30 47
e 30 48
e 30 49
e 30 50
e 30 51
e 30 52
e 30 53
e 30 54
e 30 55
e 30 56
e 30 57
e 30 58
e 30 59
e 30 60
e 30 61
e 30 62
e 30 63
e 30 64
e 30 65
e 30 66
e 30 67
e 30 68
e 30 69
e 30 70
e 30 71
e 30 72
e 30 73
e 30 74
e 30 75
e 30 76
e 30 77
e 30 78
e 30 79
e 30 80
e 30 81
e 30 82
e 30 83
e 30 84
e 30 85
e 30 86
e 30 87
e 30 88
e 30 89
e 30 90
e 30 91
e 30 92
e 30 93
e 30 94
e 30 95
e 30 96
e 97 98
e 97 99
e 97 100
e 97 101
e 97 102
e 97 103
e 97 104
e 97 105
e 97 106
e 97 107
e 97 108
e 97 109
e 97 110
e 97 111
e 97 112
e 97 113
e 97 114
e 97 115
e 97 116
e 97 117
e 97 118
e 97 119
e 97 120
e 97 121
e 97 122
e 97 123
e 97 124
e 97 125
e 97 126
e 97 127
e 97 128
e 97 129
e 97 130
e 97 131
e 97 132
e 97 133
e 97 134
e 97 135
e 97 136
e 97 137
e 97 138
e 97 139
e 97 140
e 97 141
e 97 142
e 97 143
e 97 144
e 97 145
e 97 146
e 97 147
e 97 148
e 97 149
e 97 150
e 97 151
e 97 152
e 97 153
e 97 154
e 97 155
e 97 156
e 157 158
e 157 159
e 157 160
e 157 161
e 157 162
e 157 163
e 157 164
e 157 165
e 157 166
e 157 167
e 157 168
e 157 169
e 157 170
e 157 171
e 157 172
e 157 173
e 157 174
e 157 175
e 157 176
e 157 177
e 157 178
e 157 179
e 157 180
e 157 181
e 157 182
e 157 183
e 157 184
e 157 185
e 157 186
e 157 187
e 157 188
e 157 189
e 157 190
e 157 191
e 157 192
e 157 193
e 157 194
e 157 195
e 157 196
e 157 197
e 157 198
e 157 199
e 157 200
e 157 201
e 157 202
e 157 203
e 157 204
e 157 205
e 157 206
e 157 207
e 208 209
e 208 210
e 208 211
e 208 212
e 208 213
e 208 214
e 208 215
e 208 216
e 208 217
e 208 218
e 208 219
e 208 220
e 208 221
e 208 222
e 208 223
e 208 224
e 208 225
e 208 226
e 208 227
e 208 228
e 208 229
e 208 230
e 208 231
e 208 232
e 208 233
e 208 234
e 208 235
e 208 236
e 208 237
e 208 238
e 208 239
e 208 240
e 208 241
e 208 242
e 208 243
e 208 244
e 208 245
e 208 246
e 208 247
e 208 248
e 208 249
e 208 250
e 208 251
e 208 252
e 208 253
e 208 254
e 208 255
e 208 256
e 208 257
e 208 258
e 208 259
e 208 260
e 208 261
e 208 262
e 208 263
e 208 264
e 208 265
e 208 266
e 208 267
e 208 268
e 208 269
e 208 270
e 208 271
e 208 272
e 208 273
e 208 274
e 208 275
e 208 276
e 208 277
e 208 278
e 208 279
e 208 280
e 208 281
e 208 282
e 208 283
e 208 284
e 208 285
e 286 287
e 286 288
e 286 289
e 286 290
e 286 291
e 286 292
e 286 293
e 286 294
e 286 295
e 286 296
e 286 297
e 286 298
e 286 299
e 286 300
e 286 301
e 286 302
e 286 303
e 286 304
e 286 305
e 286 306
e 286 307
e 286 308
e 286 309
e 286 310
e 286 311
e 286 312
e 286 313
e 286 314
e 286 315
e 286 316
e 286 317
e 286 318
e 286 319
e 286 320
e 286 321
e 286 322
e 286 323
e 286 324
e 286 325
e 286 326
e 286 327
e 286 328
e 286 329
e 286 330
e 286 331
e 286 332
e 286 333
e 286 334
e 286 335
e 286 336
e 286 337
e 286 338
e 286 339
e 286 340
e 286 341
e 342 343
e 342 344
e 342 345
e 342 346
e 342 347
e 342 348
e 342 349
e 342 350
e 342 351
e 342 352
e 342 353
e 342 354
e 342 355
e 342 356
e 342 357
e 342 358
e 342 359
e 342 360
e 342 361
e 342 362
e 342 363
e 342 364
e 342 365
e 342 366
e 342 367
e 342 368
e 342 369
e 342 370
e 342 371
e 342 372
e 342 373
e 342 374
e 342 375
e 342 376
e 342 377
e 342 378
e 342 379
e 342 380
e 342 381
e 342 382
e 342 383
e 342 384
e 342 385
e 342 386
e 342 387
e 342 388
e 342 389
e 342 390
e 342 391
e 342 392
e 342 393
e 342 394
e 342 395
e 342 396
e 342 397
e 342 398
e 342 399
e 342 400
e 342 401
e 342 402
e 342 403
e 342 404
e 342 405
e 342 406
e 342 407
e 342 408
e 342 409
e 342 410
e 342 411
e 342 412
e 342 413
e 342 414
e 342 415
e 342 416
e 342 417
e 342 418
e 342 419
e 342 420
e 342 421
e 342 422
e 423 424
e 423 425
e 423 426
e 423 427
e 423 428
e 423 429
e 423 430
e 423 431
e 423 432
e 423 433
e 423 434
e 423 435
e 423 436
e 423 437
e 423 438
e 423 439
e 423 440
e 423 441
e 423 442
e 423 443
e 423 444
e 423 445
e 446 447
e 446 448
e 446 449
e 446 450
e 446 451
e 446 452
e 446 453
e 446 454
e 446 455
e 446 456
e 446 457
e 446 458
e 446 459
e 446 460
e 446 461
e 446 462
e 446 463
e 446 464
e 446 465
e 446 466
e 446 467
e 446 468
e 446 469
e 446 470
e 446 471
e 446 472
e 446 473
e 446 474
e 446 475
e 446 476
e 446 477
e 446 478
e 446 479
e 446 480
e 446 481
e 446 482
e 446 483
e 446 484
e 446 485
e 446 486
e 446 487
e 446 488
e 446 489
e 446 490
e 446 491
e 446 492
e 446 493
e 446 494
e 446 495
e 446 496
e 446 497
e 446 498
e 446 499
e 446 500
e 446 501
e 446 502
e 446 503
e 446 504
e 505 506
e 505 507
e 505 508
e 505 509
e 505 510
e 505 511
e 505 512
e 505 513
e 505 514
e 505 515
e 505 516
e 505 517
e 505 518
e 505 519
e 505 520
e 505 521
e 505 522
e 505 523
e 505 524
e 505 525
e 505 526
e 505 527
e 505 528
e 505 529
e 505 530
e 505 531
e 505 532
e 505 533
e 505 534
e 505 535
e 505 536
e 505 537
e 505 538
e 505 539
e 505 540
e 505 541
e 505 542
e 505 543
e 505 544
e 505 545
e 505 546
e 505 547
e 505 548
e 505 549
e 505 550
e 505 551
e 505 552
e 505 553
e 505 554
e 505 555
e 505 556
e 505 557
e 505 558
e 505 559
e 505 560
e 505 561
e 505 562
e 505 563
e 505 564
e 505 565
e 505 566
e 505 567
e 505 568
e 505 569
e 505 570
e 505 571
e 505 572
e 505 573
e 505 574
e 505 575
e 505 576
e 505 577
e 505 578
e 505 579
e 505 580
e 505 581
e 505 582
e 505 583
e 505 584
e 505 585
e 505 586
e 505 587
e 505 588
e 505 589
e 505 590
e 505 591
e 505 592
e 505 593
e 505 594
e 505 595
e 505 596
e 597 598
e 597 599
e 597 600
e 597 601
e 597 602
e 597 603
e 597 604
e 597 605
e 597 606
e 597 607
e 597 608
e 597 609
e 597 610
e 597 611
e 597 612
e 597 613
e 597 614
e 597 615
e 597 616
e 597 617
e 597 618
e 597 619
e 597 620
e 597 621
e 597 622
e 597 623
e 597 624
e 597 625
e 597 626
e 597 627
e 597 628
e 597 629
e 597 630
e 597 631
e 597 632
e 597 633
e 597 634
e 597 635
e 597 636
e 597 637
e 597 638
e 639 640
e 639 641
e 639 642
e 639 643
e 639 644
e 639 645
e 639 646
e 639 647
e 639 648
e 639 649
e 639 650
e 639 651
e 639 652
e 639 653
e 639 654
e 639 655
e 639 656
e 639 657
e 639 658
e 639 659
e 639 660
e 639 661
e 639 662
e 639 663
e 639 664
e 639 665
e 639 666
e 639 667
e 639 668
e 639 669
e 639 670
e 639 671
e 639 672
e 639 673
e 639 674
e 639 675
e 639 676
e 639 677
e 639 678
e 639 679
e 639 680
e 639 681
e 639 682
e 639 683
e 639 684
e 639 685
e 639 686
e 639 687
e 639 688
e 689 690
e 689 691
e 689 692
e 689 693
e 689 694
e 689 695
e 689 696
e 689 697
e 689 698
e 689 699
e 689 700
e 689 701
e 689 702
e 689 703
e 689 704
e 689 705
e 706 707
e 706 708
e 706 709
e 706 710
e 706 711
e 706 712
e 706 713
e 706 714
e 706 715
e 706 716
e 706 717
e 706 718
e 706 719
e 706 720
e 706 721
e 706 722
e 706 723
e 706 724
e 706 725
e 706 726
e 706 727
e 706 728
e 706 729
e 706 730
e 706 731
e 706 732
e 706 733
e 706 734
e 706 735
e 706 736
e 706 737
e 706 738
e 706 739
e 706 740
e 706 741
e 706 742
e 706 743
e 706 744
e 706 745
e 706 746
e 706 747
e 706 748
e 706 749
e 706 750
e 706 751
e 706 752
e 706 753
e 706 754
e 706 755
e 706 756
e 706 757
e 706 758
e 706 759
e 706 760
e 706 761
e 706 762
e 706 763
e 706 764
e 706 765
e 706 766
e 706 767
e 706 768
e 706 769
e 706 770
e 706 771
e 706 772
e 706 773
e 706 774
e 706 775
e 706 776
e 706 777
e 706 778
e 706 779
e 706 780
e 706 781
e 706 782
e 706 783
e 706 784
e 706 785
e 706 786
e 706 787
e 706 788
e 706 789
e 706 790
e 706 791
e 706 792
e 706 793
e 706 794
e 706 795
e 706 796
e 797 798
e 797 799
e 797 800
e 797 801
e 797 802
e 797 803
e 797 804
e 797 805
e 797 806
e 797 807
e 797 808
e 797 809
e 797 810
e 797 811
e 797 812
e 797 813
e 797 814
e 797 815
e 797 816
e 797 817
e 797 818
e 797 819
e 797 820
e 797 821
e 797 822
e 797 823
e 797 824
e 797 825
e 797 826
e 797 827
e 797 828
e 797 829
e 797 830
e 797 831
e 797 832
e 797 833
e 797 834
e 797 835
e 797 836
e 797 837
e 797 838
e 797 839
e 797 840
e 797 841
e 797 842
e 797 843
e 797 844
e 797 845
e 797 846
e 797 847
e 797 848
e 797 849
e 797 850
e 797 851
e 797 852
e 797 853
e 797 854
e 797 855
e 797 856
e 797 857
e 797 858
e 797 859
e 797 860
e 797 861
e 797 862
e 797 863
e 797 864
e 797 865
e 797 866
e 797 867
e 797 868
e 797 869
e 797 870
e 797 871
e 797 872
e 797 873
e 797 874
e 797 875
e 797 876
e 797 877
e 797 878
e 797 879
e 797 880
e 797 881
e 797 882
e 797 883
e 797 884
e 797 885
e 797 886
e 797 887
e 797 888
e 797 889
e 797 890
e 797 891
e 797 892
e 797 893
e 797 894
e 797 895
e 797 896
e 797 897
e 898 899
e 898 900
e 898 901
e 898 902
e 898 903
e 898 904
e 898 905
e 898 906
e 898 907
e 898 908
e 898 909
e 898 910
e 898 911
e 898 912
e 898 913
e 898 914
e 898 915
e 898 916
e 898 917
e 898 918
e 898 919
e 898 920
e 898 921
e 898 922
e 898 923
e 898 924
e 898 925
e 898 926
e 898 927
e 898 928
e 898 929
e 898 930
e 898 931
e 898 932
e 898 933
e 898 934
e 898 935
e 898 936
e 898 937
e 898 938
e 898 939
e 898 940
e 898 941
e 898 942
e 898 943
e 898 944
e 898 945
e 898 946
e 898 947
e 898 948
e 898 949
e 898 950
e 898 951
e 898 952
e 898 953
e 898 954
e 898 955
e 898 956
e 898 957
e 898 958
e 898 959
e 898 960
e 898 961
e 898 962
e 898 963
e 898 964
e 898 965
e 898 966
e 898 967
e 898 968
e 898 969
e 898 970
e 898 971
e 898 972
e 898 973
e 898 974
e 898 975
e 898 976
e 898 977
e 898 978
e 898 979
e 898 980
e 898 981
e 898 982
e 898 983
e 898 984
e 985 986
e 985 987
e 985 988
e 985 989
e 985 990
e 985 991
e 985 992
e 985 993
e 985 994
e 985 995
e 985 996
e 985 997
e 985 998
e 985 999
e 985 1000
e 985 1001
e 985 1002
e 985 1003
e 985 1004
e 985 1005
e 985 1006
e 985 1007
e 985 1008
e 985 1009
e 985 1010
e 985 1011
e 985 1012
e 985 1013
e 985 1014
e 985 1015
e 985 1016
e 985 1017
e 985 1018
e 985 1019
e 985 1020
e 985 1021
e 985 1022
e 985 1023
e 985 1024
e 985 1025
e 985 1026
e 985 1027
e 985 1028
e 985 1029
e 985 1030
e 1031 1032
e 1031 1033
e 1031 1034
e 1031 1035
e 1031 1036
e 1031 1037
e 1031 1038
e 1031 1039
e 1031 1040
e 1031 1041
e 1031 1042
e 1031 1043
e 1031 1044
e 1031 1045
e 1031 1046
e 1031 1047
e 1031 1048
e 1031 1049
e 1031 1050
e 1031 1051
e 1031 1052
e 1031 1053
e 1031 1054
e 1031 1055
e 1031 1056
e 1031 1057
e 1031 1058
e 1031 1059
e 1031 1060
e 1031 1061
e 1031 1062
e 1031 1063
e 1031 1064
e 1031 1065
e 1031 1066
e 1031 1067
e 1031 1068
e 1031 1069
e 1031 1070
e 1031 1071
e 1031 1072
e 1031 1073
e 1031 1074
e 1031 1075
e 1031 1076
e 1031 1077
e 1031 1078
e 1031 1079
e 1031 1080
e 1031 1081
e 1031 1082
e 1031 1083
e 1031 1084
e 1031 1085
e 1031 1086
e 1031 1087
e 1031 1088
e 1031 1089
e 1031 1090
e 1031 1091
e 1031 1092
e 1031 1093
e 1031 1094
e 1031 1095
e 1031 1096
e 1031 1097
e 1031 1098
e 1031 1099
e 1031 1100
e 1031 1101
e 1102 1103
e 1102 1104
e 1102 1105
e 1102 1106
e 1102 1107
e 1102 1108
e 1102 1109
e 1102 1110
e 1102 1111
e 1102 1112
e 1102 1113
e 1102 1114
e 1102 1115
e 1102 1116
e 1102 1117
e 1102 1118
e 1102 1119
e 1102 1120
e 1102 1121
e 1102 1122
e 1102 1123
e 1102 1124
e 1102 1125
e 1102 1126
e 1102 1127
e 1102 1128
e 1102 1129
e 1102 1130
e 1102 1131
e 1102 1132
e 1102 1133
e 1102 1134
e 1102 1135
e 1102 1136
e 1102 1137
e 1102 1138
e 1102 1139
e 1102 1140
e 1102 1141
e 1102 1142
e 1102 1143
e 1102 1144
e 1102 1145
e 1102 1146
e 1102 1147
e 1102 1148
e 1102 1149
e 1102 1150
e 1102 1151
e 1102 1152
e 1102 1153
e 1102 1154
e 1102 1155
e 1102 1156
e 1157 1158
e 1157 1159
e 1157 1160
e 1157 1161
e 1157 1162
e 1157 1163
e 1157 1164
e 1157 1165
e 1157 1166
e 1157 1167
e 1157 1168
e 1157 1169
e 1157 1170
e 1157 1171
e 1157 1172
e 1157 1173
e 1157 1174
e 1157 1175
e 1157 1176
e 1157 1177
e 1157 1178
e 1157 1179
e 1157 1180
e 1157 1181
e 1157 1182
e 1157 1183
e 1157 1184
e 1157 1185
e 1157 1186
e 1157 1187
e 1157 1188
e 1157 1189
e 1157 1190
e 1157 1191
e 1157 1192
e 1157 1193
e 1157 1194
e 1157 1195
e 1157 1196
e 1157 1197
e 1157 1198
e 1157 1199
e 1157 1200
e 1157 1201
e 1157 1202
e 1157 1203
e 1157 1204
e 1157 1205
e 1157 1206
e 1157 1207
e 1157 1208
e 1157 1209
e 1157 1210
e 1157 1211
e 1157 1212
e 1157 1213
e 1214 1215
e 1214 1216
e 1214 1217
e 1214 1218
e 1214 1219
e 1214 1220
e 1214 1221
e 1214 1222
e 1214 1223
e 1214 1224
e 1214 1225
e 1214 1226
e 1214 1227
e 1214 1228
e 1214 1229
e 1214 1230
e 1214 1231
e 1214 1232
e 1214 1233
e 1214 1234
e 1214 1235
e 1214 1236
e 1214 1237
e 1214 1238
e 1214 1239
e 1214 1240
e 1214 1241
e 1214 1242
e 1214 1243
e 1214 1244
e 1214 1245
e 1214 1246
e 1214 1247
e 1214 1248
e 1214 1249
e 1214 1250
e 1214 1251
e 1214 1252
e 1214 1253
e 1214 1254
e 1214 1255
e 1214 1256
e 1214 1257
e 1214 1258
e 1214 1259
e 1214 1260
e 1214 1261
e 1214 1262
e 1214 1263
e 1214 1264
e 1214 1265
e 1214 1266
e 1214 1267
e 1214 1268
e 1214 1269
e 1214 1270
e 1214 1271
e 1214 1272
e 1214 1273
e 1214 1274
e 1214 1275
e 1214 1276
e 1214 1277
e 1214 1278
e 1214 1279
e 1214 1280
e 1214 1281
e 1214 1282
e 1214 1283
e 1214 1284
e 1214 1285
e 1214 1286
e 1214 1287
e 1214 1288
e 1214 1289
e 1214 1290
e 1214 1291
e 1214 1292
e 1214 1293
e 1214 1294
e 1214 1295
e 1214 1296
e 1214 1297
e 1214 1298
e 1214 1299
e 1214 1300
e 1214 1301
e 1214 1302
e 1214 1303
e 1214 1304
e 1214 1305
e 1214 1306
e 1214 1307
e 1214 1308
e 1214 1309
e 1214 1310
e 1311 1312
e 1311 1313
e 1311 1314
e 1311 1315
e 1311 1316
e 1311 1317
e 1311 1318
e 1311 1319
e 1311 1320
e 1311 1321
e 1311 1322
e 1311 1323
e 1311 1324
e 1311 1325
e 1311 1326
e 1311 1327
e 1311 1328
e 1311 1329
e 1311 1330
e 1311 1331
e 1311 1332
e 1311 1333
e 1311 1334
e 1311 1335
e 1311 1336
e 1311 1337
e 1311 1338
e 1311 1339
e 1311 1340
e 1311 1341
e 1311 1342
e 1311 1343
e 1311 1344
e 1345 1346
e 1345 1347
e 1345 1348
e 1345 1349
e 1345 1350
e 1345 1351
e 1345 1352
e 1345 1353
e 1345 1354
e 1345 1355
e 1345 1356
e 1345 1357
e 1345 1358
e 1345 1359
e 1345 1360
e 1345 1361
e 1345 1362
e 1345 1363
e 1345 1364
e 1345 1365
e 1345 1366
e 1345 1367
e 1345 1368
e 1345 1369
e 1345 1370
e 1345 1371
e 1345 1372
e 1345 1373
e 1345 1374
e 1345 1375
e 1345 1376
e 1345 1377
e 1345 1378
e 1345 1379
e 1345 1380
e 1345 1381
e 1345 1382
e 1345 1383
e 1345 1384
e 1345 1385
e 1345 1386
e 1345 1387
e 1345 1388
e 1345 1389
e 1345 1390
e 1345 1391
e 1345 1392
e 1345 1393
e 1345 1394
e 1345 1395
e 1345 1396
e 1345 1397
e 1345 1398
e 1345 1399
e 1345 1400
e 1345 1401
e 1345 1402
e 1345 1403
e 1345 1404
e 1345 1405
e 1345 1406
e 1345 1407
e 1345 1408
e 1345 1409
e 1345 1410
e 1345 1411
e 1345 1412
e 1345 1413
e 1345 1414
e 1345 1415
e 1345 1416
e 1345 1417
e 1345 1418
e 1345 1419
e 1345 1420
e 1345 1421
e 1345 1422
e 1345 1423
e 1345 1424
e 1425 1426
e 1425 1427
e 1425 1428
e 1425 1429
e 1425 1430
e 1425 1431
e 1425 1432
e 1425 1433
e 1425 1434
e 1425 1435
e 1425 1436
e 1425 1437
e 1425 1438
e 1425 1439
e 1425 1440
e 1425 1441
e 1425 1442
e 1425 1443
e 1425 1444
e 1425 1445
e 1425 1446
e 1447 1448
e 1447 1449
e 1447 1450
e 1447 1451
e 1447 1452
e 1447 1453
e 1447 1454
e 1447 1455
e 1447 1456
e 1447 1457
e 1447 1458
e 1447 1459
e 1447 1460
e 1447 1461
e 1447 1462
e 1447 1463
e 1447 1464
e 1447 1465
e 1447 1466
e 1447 1467
e 1447 1468
e 1447 1469
e 1447 1470
e 1447 1471
e 1447 1472
e 1447 1473
e 1447 1474
e 1447 1475
e 1447 1476
e 1447 1477
e 1447 1478
e 1447 1479
e 1447 1480
e 1447 1481
e 1447 1482
e 1447 1483
e 1447 1484
e 1447 1485
e 1447 1486
e 1447 1487
e 1447 1488
e 1447 1489
e 1447 1490
e 1447 1491
e 1447 1492
e 1447 1493
e 1447 1494
e 1447 1495
e 1447 1496
e 1447 1497
e 1447 1498
e 1447 1499
e 1447 1500
e 1447 1501
e 1447 1502
e 1447 1503
e 1447 1504
e 1447 1505
e 1447 1506
e 1447 1507
e 1447 1508
e 1447 1509
e 1447 1510
e 1447 1511
e 1447 1512
e 1513 1514
e 1513 1515
e 1513 1516
e 1513 1517
e 1513 1518
e 1513 1519
e 1513 1520
e 1513 1521
e 1513 1522
e 1513 1523
e 1513 1524
e 1513 1525
e 1513 1526
e 1513 1527
e 1513 1528
e 1513 1529
e 1513 1530
e 1513 1531
e 1513 1532
e 1513 1533
e 1513 1534
e 1513 1535
e 1513 1536
e 1513 1537
e 1513 1538
e 1513 1539
e 1513 1540
e 1513 1541
e 1513 1542
e 1513 1543
e 1513 1544
e 1513 1545
e 1513 1546
e 1513 1547
e 1513 1548
e 1513 1549
e 1513 1550
e 1513 1551
e 1513 1552
e 1513 1553
e 1513 1554
e 1513 1555
e 1513 1556
e 1513 1557
e 1513 1558
e 1513 1559
e 1513 1560
e 1513 1561
e 1513 1562
e 1513 1563
e 1513 1564
e 1513 1565
e 1513 1566
e 1513 1567
e 1513 1568
e 1513 1569
e 1513 1570
e 1513 1571
e 1513 1572
e 1513 1573
e 1513 1574
e 1513 1575
e 1513 1576
e 1513 1577
e 1513 1578
e 1513 1579
e 1513 1580
e 1513 1581
e 1513 1582
e 1513 1583
e 1513 1584
e 1513 1585
e 1513 1586
e 1513 1587
e 1513 1588
e 1513 1589
e 1513 1590
e 1513 1591
e 1513 1592
e 1513 1593
e 1513 1594
e 1513 1595
e 1596 1597
e 1596 1598
e 1596 1599
e 1596 1600
e 1596 1601
e 1596 1602
e 1596 1603
e 1596 1604
e 1596 1605
e 1596 1606
e 1596 1607
e 1596 1608
e 1596 1609
e 1596 1610
e 1596 1611
e 1596 1612
e 1596 1613
e 1596 1614
e 1596 1615
e 1596 1616
e 1596 1617
e 1596 1618
e 1596 1619
e 1596 1620
e 1596 1621
e 1596 1622
e 1596 1623
e 1596 1624
e 1596 1625
e 1596 1626
e 1596 1627
e 1596 1628
e 1596 1629
e 1596 1630
e 1596 1631
e 1596 1632
e 1596 1633
e 1596 1634
e 1596 1635
e 1596 1636
e 1596 1637
e 1596 1638
e 1596 1639
e 1596 1640
e 1596 1641
e 1596 1642
e 1596 1643
e 1596 1644
e 1596 1645
e 1596 1646
e 1596 1647
e 1596 1648
e 1596 1649
e 1596 1650
e 1596 1651
e 1596 1652
e 1653 1654
e 1653 1655
e 1653 1656
e 1653 1657
e 1653 1658
e 1653 1659
e 1653 1660
e 1653 1661
e 1653 1662
e 1653 1663
e 1653 1664
e 1653 1665
e 1653 1666
e 1653 1667
e 1653 1668
e 1653 1669
e 1653 1670
e 1653 1671
e 1653 1672
e 1653 1673
e 1653 1674
e 1653 1675
e 1653 1676
e 1653 1677
e 1653 1678
e 1653 1679
e 1653 1680
e 1653 1681
e 1653 1682
e 1653 1683
e 1653 1684
e 1653 1685
e 1653 1686
e 1653 1687
e 1653 1688
e 1653 1689
e 1653 1690
e 1653 1691
e 1653 1692
e 1653 1693
e 1653 1694
e 1653 1695
e 1653 1696
e 1653 1697
e 1653 1698
e 1653 1699
e 1653 1700
e 1653 1701
e 1653 1702
e 1653 1703
e 1653 1704
e 1653 1705
e 1653 1706
e 1653 1707
e 1653 1708
e 1653 1709
e 1653 1710
e 1653 1711
e 1653 1712
e 1653 1713
e 1653 1714
e 1653 1715
e 1653 1716
e 1653 1717
e 1653 1718
e 1653 1719
e 1653 1720
e 1653 1721
e 1653 1722
e 1653 1723
e 1653 1724
e 1653 1725
e 1653 1726
e 1653 1727
e 1653 1728
e 1653 1729
e 1653 1730
e 1653 1731
e 1653 1732
e 1653 1733
e 1653 1734
e 1653 1735
e 1653 1736
e 1653 1737
e 1653 1738
e 1653 1739
e 1653 1740
e 1741 1742
e 1741 1743
e 1741 1744
e 1741 1745
e 1741 1746
e 1741 1747
e 1741 1748
e 1741 1749
e 1741 1750
e 1741 1751
e 1741 1752
e 1741 1753
e 1741 1754
e 1741 1755
e 1741 1756
e 1741 1757
e 1741 1758
e 1741 1759
e 1741 1760
e 1741 1761
e 1741 1762
e 1741 1763
e 1741 1764
e 1741 1765
e 1741 1766
e 1741 1767
e 1741 1768
e 1741 1769
e 1741 1770
e 1741 1771
e 1741 1772
e 1741 1773
e 1741 1774
e 1741 1775
e 1741 1776
e 1741 1777
e 1741 1778
e 1741 1779
e 1741 1780
e 1741 1781
e 1741 1782
e 1741 1783
e 1741 1784
e 1741 1785
e 1741 1786
e 1741 1787
e 1741 1788
e 1741 1789
e 1741 1790
e 1741 1791
e 1741 1792
e 1741 1793
e 1741 1794
e 1741 1795
e 1741 1796
e 1741 1797
e 1741 1798
e 1741 1799
e 1741 1800
e 1741 1801
e 1741 1802
e 1741 1803
e 1741 1804
e 1741 1805
e 1741 1806
e 1741 1807
e 1741 1808
e 1741 1809
e 1741 1810
e 1741 1811
e 1741 1812
e 1741 1813
e 1741 1814
e 1815 1816
e 1815 1817
e 1815 1818
e 1815 1819
e 1815 1820
e 1815 1821
e 1815 1822
e 1815 1823
e 1815 1824
e 1815 1825
e 1815 1826
e 1815 1827
e 1815 1828
e 1815 1829
e 1815 1830
e 1831 1832
e 1831 1833
e 1831 1834
e 1831 1835
e 1831 1836
e 1831 1837
e 1831 1838
e 1831 1839
e 1831 1840
e 1831 1841
e 1831 1842
e 1831 1843
e 1831 1844
e 1831 1845
e 1831 1846
e 1847 1848
e 1847 1849
e 1847 1850
e 1847 1851
e 1847 1852
e 1847 1853
e 1847 1854
e 1847 1855
e 1847 1856
e 1847 1857
e 1847 1858
e 1847 1859
e 1847 1860
e 1847 1861
e 1847 1862
e 1847 1863
e 1847 1864
e 1847 1865
e 1847 1866
e 1847 1867
e 1847 1868
e 1847 1869
e 1847 1870
e 1847 1871
e 1847 1872
e 1847 1873
e 1847 1874
e 1875 1876
e 1875 1877
e 1875 1878
e 1875 1879
e 1875 1880
e 1875 1881
e 1875 1882
e 1875 1883
e 1875 1884
e 1875 1885
e 1875 1886
e 1875 1887
e 1875 1888
e 1875 1889
e 1875 1890
e 1875 1891
e 1875 1892
e 1875 1893
e 1875 1894
e 1875 1895
e 1875 1896
e 1875 1897
e 1875 1898
e 1875 1899
e 1875 1900
e 1875 1901
e 1875 1902
e 1875 1903
e 1875 1904
e 1875 1905
e 1875 1906
e 1875 1907
e 1875 1908
e 1875 1909
e 1875 1910
e 1875 1911
e 1875 1912
e 1875 1913
e 1875 1914
e 1875 1915
e 1875 1916
e 1875 1917
e 1875 1918
e 1875 1919
e 1875 1920
e 1875 1921
e 1875 1922
e 1875 1923
e 1875 1924
e 1875 1925
e 1875 1926
e 1875 1927
e 1875 1928
e 1875 1929
e 1875 1930
e 1875 1931
e 1875 1932
e 1875 1933
e 1875 1934
e 1875 1935
e 1875 1936
e 1875 1937
e 1875 1938
e 1875 1939
e 1875 1940
e 1875 1941
e 1875 1942
e 1875 1943
e 1875 1944
e 1875 1945
e 1875 1946
e 1875 1947
e 1875 1948
e 1875 1949
e 1875 1950
e 1875 1951
e 1875 1952
e 1953 1954
e 1953 1955
e 1953 1956
e 1953 1957
e 1953 1958
e 1953 1959
e 1953 1960
e 1953 1961
e 1953 1962
e 1953 1963
e 1953 1964
e 1953 1965
e 1953 1966
e 1953 1967
e 1953 1968
e 1953 1969
e 1953 1970
e 1953 1971
e 1953 1972
e 1953 1973
e 1953 1974
e 1953 1975
e 1953 1976
e 1953 1977
e 1953 1978
e 1953 1979
e 1953 1980
e 1953 1981
e 1953 1982
e 1953 1983
e 1953 1984
e 1953 1985
e 1953 1986
e 1953 1987
e 1953 1988
e 1953 1989
e 1953 1990
e 1953 1991
e 1953 1992
e 1953 1993
e 1953 1994
e 1953 1995
e 1953 1996
e 1953 1997
e 1953 1998
e 1953 1999
e 1953 2000
e 1953 2001
e 1953 2002
e 1953 2003
e 1953 2004
e 1953 2005
e 1953 2006
e 1953 2007
e 1953 2008
e 1953 2009
e 1953 2010
e 1953 2011
e 1953 2012
e 1953 2013
e 1953 2014
e 1953 2015
e 1953 2016
e 1953 2017
e 1953 2018
e 1953 2019
e 1953 2020
e 1953 2021
e 1953 2022
e 1953 2023
e 1953 2024
e 1953 2025
e 1953 2026
e 1953 2027
e 1953 2028
e 1953 2029
e 1953 2030
e 1953 2031
e 1953 2032
e 1953 2033
e 1953 2034
e 1953 2035
e 1953 2036
e 1953 2037
e 1953 2038
e 1953 2039
e 1953 2040
e 1953 2041
e 1953 2042
e 2043 2044
e 2043 2045
e 2043 2046
e 2043 2047
e 2043 2048
e 2043 2049
e 2043 2050
e 2043 2051
e 2043 2052
e 2043 2053
e 2043 2054
e 2043 2055
e 2043 2056
e 2043 2057
e 2043 2058
e 2043 2059
e 2043 2060
e 2043 2061
e 2043 2062
e 2063 2064
e 2063 2065
e 2063 2066
e 2063 2067
e 2063 2068
e 2063 2069
e 2063 2070
e 2063 2071
e 2063 2072
e 2063 2073
e 2063 2074
e 2063 2075
e 2063 2076
e 2063 2077
e 2063 2078
e 2063 2079
e 2063 2080
e 2063 2081
e 2063 2082
e 2063 2083
e 2063 2084
e 2063 2085
e 2063 2086
e 2063 2087
e 2063 2088
e 2063 2089
e 2063 2090
e 2063 2091
e 2092 2093
e 2092 2094
e 2092 2095
e 2092 2096
e 2092 2097
e 2092 2098
e 2092 2099
e 2092 2100
e 2092 2101
e 2092 2102
e 2092 2103
e 2092 2104
e 2092 2105
e 2092 2106
e 2092 2107
e 2092 2108
e 2092 2109
e 2092 2110
e 2092 2111
e 2092 2112
e 2092 2113
e 2092 2114
e 2092 2115
e 2092 2116
e 2092 2117
e 2092 2118
e 2092 2119
e 2092 2120
e 2092 2121
e 2092 2122
e 2092 2123
e 2092 2124
e 2092 2125
e 2092 2126
e 2092 2127
e 2092 2128
e 2092 2129
e 2092 2130
e 2092 2131
e 2092 2132
e 2092 2133
e 2092 2134
e 2092 2135
e 2092 2136
e 2092 2137
e 2092 2138
e 2092 2139
e 2092 2140
e 2092 2141
e 2092 2142
e 2092 2143
e 2092 2144
e 2092 2145
e 2092 2146
e 2092 2147
e 2092 2148
e 2092 2149
e 2092 2150
e 2092 2151
e 2092 2152
e 2092 2153
e 2092 2154
e 2092 2155
e 2092 2156
e 2092 2157
e 2092 2158
e 2092 2159
e 2092 2160
e 2092 2161
e 2092 2162
e 2092 2163
e 2092 2164
e 2092 2165
e 2092 2166
e 2092 2167
e 2092 2168
e 2092 2169
e 2092 2170
e 2092 2171
e 2092 2172
e 2173 2174
e 2173 2175
e 2173 2176
e 2173 2177
e 2173 2178
e 2173 2179
e 2173 2180
e 2173 2181
e 2173 2182
e 2173 2183
e 2173 2184
e 2173 2185
e 2173 2186
e 2173 2187
e 2173 2188
e 2173 2189
e 2173 2190
e 2173 2191
e 2173 2192
e 2173 2193
e 2173 2194
e 2173 2195
e 2173 2196
e 2173 2197
e 2173 2198
e 2173 2199
e 2173 2200
e 2173 2201
e 2173 2202
e 2173 2203
e 2173 2204
e 2173 2205
e 2173 2206
e 2173 2207
e 2173 2208
e 2173 2209
e 2173 2210
e 2173 2211
e 2173 2212
e 2173 2213
e 2173 2214
e 2173 2215
e 2173 2216
e 2173 2217
e 2173 2218
e 2173 2219
e 2173 2220
e 2173 2221
e 2173 2222
e 2173 2223
e 2173 2224
e 2173 2225
e 2173 2226
e 2173 2227
e 2173 2228
e 2173 2229
e 2173 2230
e 2173 2231
e 2173 2232
e 2173 2233
e 2173 2234
e 2173 2235
e 2173 2236
e 2173 2237
e 2173 2238
e 2173 2239
e 2173 2240
e 2173 2241
e 2173 2242
e 2173 2243
e 2173 2244
e 2173 2245
e 2173 2246
e 2173 2247
e 2173 2248
e 2173 2249
e 2173 2250
e 2173 2251
e 2252 2253
e 2252 2254
e 2252 2255
e 2252 2256
e 2252 2257
e 2252 2258
e 2252 2259
e 2252 2260
e 2252 2261
e 2252 2262
e 2252 2263
e 2252 2264
e 2252 2265
e 2252 2266
e 2252 2267
e 2252 2268
e 2252 2269
e 2252 2270
e 2252 2271
e 2252 2272
e 2252 2273
e 2252 2274
e 2252 2275
e 2252 2276
e 2252 2277
e 2278 2279
e 2278 2280
e 2278 2281
e 2278 2282
e 2278 2283
e 2278 2284
e 2278 2285
e 2278 2286
e 2278 2287
e 2278 2288
e 2278 2289
e 2278 2290
e 2278 2291
e 2278 2292
e 2278 2293
e 2278 2294
e 2278 2295
e 2278 2296
e 2278 2297
e 2278 2298
e 2278 2299
e 2278 2300
e 2278 2301
e 2278 2302
e 2278 2303
e 2278 2304
e 2278 2305
e 2278 2306
e 2278 2307
e 2278 2308
e 2278 2309
e 2278 2310
e 2278 2311
e 2278 2312
e 2278 2313
e 2278 2314
e 2278 2315
e 2278 2316
e 2278 2317
e 2278 2318
e 2278 2319
e 2278 2320
e 2278 2321
e 2278 2322
e 2278 2323
e 2278 2324
e 2278 2325
e 2278 2326
e 2278 2327
e 2278 2328
e 2278 2329
e 2278 2330
e 2278 2331
e 2278 2332
e 2278 2333
e 2278 2334
e 2278 2335
e 2278 2336
e 2278 2337
e 2278 2338
e 2278 2339
e 2278 2340
e 2278 2341
e 2278 2342
e 2278 2343
e 2278 2344
e 2278 2345
e 2278 2346
e 2278 2347
e 2278 2348
e 2278 2349
e 2278 2350
e 2278 2351
e 2278 2352
e 2278 2353
e 2278 2354
e 2278 2355
e 2278 2356
e 2278 2357
e 2278 2358
e 2278 2359
e 2278 2360
e 2278 2361
e 2278 2362
e 2278 2363
e 2278 2364
e 2278 2365
e 2278 2366
e 2278 2367
e 2278 2368
e 2278 2369
e 2278 2370
e 2278 2371
e 2278 2372
e 2278 2373
e 2278 2374
e 2375 2376
e 2375 2377
e 2375 2378
e 2375 2379
e 2375 2380
e 2375 2381
e 2375 2382
e 2375 2383
e 2375 2384
e 2375 2385
e 2375 2386
e 2375 2387
e 2375 2388
e 2375 2389
e 2375 2390
e 2375 2391
e 2375 2392
e 2375 2393
e 2375 2394
e 2375 2395
e 2375 2396
e 2375 2397
e 2375 2398
e 2375 2399
e 2375 2400
e 2375 2401
e 2375 2402
e 2375 2403
e 2375 2404
e 2375 2405
e 2375 2406
e 2375 2407
e 2375 2408
e 2375 2409
e 2375 2410
e 2375 2411
e 2375 2412
e 2375 2413
e 2375 2414
e 2375 2415
e 2375 2416
e 2375 2417
e 2375 2418
e 2375 2419
e 2375 2420
e 2375 2421
e 2375 2422
e 2375 2423
e 2375 2424
e 2375 2425
e 2375 2426
e 2375 2427
e 2375 2428
e 2375 2429
e 2375 2430
e 2375 2431
e 2375 2432
e 2375 2433
e 2375 2434
e 2375 2435
e 2375 2436
e 2375 2437
e 2375 2438
e 2375 2439
e 2375 2440
e 2375 2441
e 2375 2442
e 2375 2443
e 2375 2444
e 2375 2445
e 2375 2446
e 2375 2447
e 2375 2448
e 2375 2449
e 2375 2450
e 2375 2451
e 2375 2452
e 2375 2453
e 2375 2454
e 2375 2455
e 2375 2456
e 2375 2457
e 2375 2458
e 2375 2459
e 2460 2461
e 2460 2462
e 2460 2463
e 2460 2464
e 2460 2465
e 2460 2466
e 2460 2467
e 2460 2468
e 2460 2469
e 2460 2470
e 2460 2471
e 2460 2472
e 2460 2473
e 2460 2474
e 2460 2475
e 2460 2476
e 2460 2477
e 2460 2478
e 2460 2479
e 2460 2480
e 2460 2481
e 2460 2482
e 2460 2483
e 2460 2484
e 2460 2485
e 2460 2486
e 2460 2487
e 2460 2488
e 2460 2489
e 2460 2490
e 2460 2491
e 2460 2492
e 2460 2493
e 2460 2494
e 2460 2495
e 2460 2496
e 2460 2497
e 2460 2498
e 2460 2499
e 2460 2500
e 2460 2501
e 2460 2502
e 2460 2503
e 2460 2504
e 2460 2505
e 2506 2507
e 2506 2508
e 2506 2509
e 2506 2510
e 2506 2511
e 2506 2512
e 2506 2513
e 2506 2514
e 2506 2515
e 2506 2516
e 2506 2517
e 2506 2518
e 2506 2519
e 2506 2520
e 2506 2521
e 2506 2522
e 2506 2523
e 2506 2524
e 2506 2525
e 2506 2526
e 2506 2527
e 2506 2528
e 2506 2529
e 2506 2530
e 2506 2531
e 2506 2532
e 2506 2533
e 2506 2534
e 2506 2535
e 2506 2536
e 2506 2537
e 2538 2539
e 2538 2540
e 2538 2541
e 2538 2542
e 2538 2543
e 2538 2544
e 2538 2545
e 2538 2546
e 2538 2547
e 2538 2548
e 2538 2549
e 2538 2550
e 2538 2551
e 2538 2552
e 2538 2553
e 2538 2554
e 2538 2555
e 2538 2556
e 2538 2557
e 2538 2558
e 2538 2559
e 2538 2560
e 2538 2561
e 2538 2562
e 2538 2563
e 2538 2564
e 2538 2565
e 2538 2566
e 2538 2567
e 2538 2568
e 2538 2569
e 2538 2570
e 2538 2571
e 2572 2573
e 2572 2574
e 2572 2575
e 2572 2576
e 2572 2577
e 2572 2578
e 2572 2579
e 2572 2580
e 2572 2581
e 2572 2582
e 2572 2583
e 2572 2584
e 2572 2585
e 2572 2586
e 2572 2587
e 2572 2588
e 2572 2589
e 2572 2590
e 2572 2591
e 2572 2592
e 2572 2593
e 2572 2594
e 2572 2595
e 2572 2596
e 2572 2597
e 2572 2598
e 2572 2599
e 2572 2600
e 2572 2601
e 2572 2602
e 2572 2603
e 2572 2604
e 2572 2605
e 2572 2606
e 2572 2607
e 2572 2608
e 2572 2609
e 2572 2610
e 2572 2611
e 2572 2612
e 2572 2613
e 2572 2614
e 2572 2615
e 2572 2616
e 2572 2617
e 2572 2618
e 2572 2619
e 2572 2620
e 2572 2621
e 2572 2622
e 2572 2623
e 2572 2624
e 2572 2625
e 2572 2626
e 2572 2627
e 2572 2628
e 2572 2629
e 2572 2630
e 2572 2631
e 2572 2632
e 2633 2634
e 2633 2635
e 2633 2636
e 2633 2637
e 2633 2638
e 2633 2639
e 2633 2640
e 2633 2641
e 2633 2642
e 2633 2643
e 2633 2644
e 2633 2645
e 2633 2646
e 2633 2647
e 2633 2648
e 2633 2649
e 2633 2650
e 2633 2651
e 2633 2652
e 2633 2653
e 2633 2654
e 2633 2655
e 2633 2656
e 2633 2657
e 2633 2658
e 2633 2659
e 2633 2660
e 2633 2661
e 2633 2662
e 2633 2663
e 2633 2664
e 2633 2665
e 2633 2666
e 2667 2668
e 2667 2669
e 2667 2670
e 2667 2671
e 2667 2672
e 2667 2673
e 2667 2674
e 2667 2675
e 2667 2676
e 2667 2677
e 2667 2678
e 2667 2679
e 2667 2680
e 2667 2681
e 2667 2682
e 2683 2684
e 2683 2685
e 2683 2686
e 2683 2687
e 2683 2688
e 2683 2689
e 2683 2690
e 2683 2691
e 2683 2692
e 2683 2693
e 2683 2694
e 2683 2695
e 2683 2696
e 2683 2697
e 2683 2698
e 2683 2699
e 2683 2700
e 2683 2701
e 2683 2702
e 2683 2703
e 2683 2704
e 2683 2705
e 2683 2706
e 2683 2707
e 2683 2708
e 2683 2709
e 2683 2710
e 2683 2711
e 2683 2712
e 2683 2713
e 2683 2714
e 2683 2715
e 2683 2716
e 2683 2717
e 2683 2718
e 2683 2719
e 2683 2720
e 2683 2721
e 2683 2722
e 2683 2723
e 2683 2724
e 2683 2725
e 2683 2726
e 2683 2727
e 2683 2728
e 2683 2729
e 2683 2730
e 2683 2731
e 2683 2732
e 2683 2733
e 2683 2734
e 2683 2735
e 2683 2736
e 2683 2737
e 2683 2738
e 2683 2739
e 2683 2740
e 2683 2741
e 2683 2742
e 2683 2743
e 2683 2744
e 2683 2745
e 2683 2746
e 2683 2747
e 2683 2748
e 2683 2749
e 2683 2750
e 2683 2751
e 2683 2752
e 2683 2753
e 2683 2754
e 2683 2755
e 2683 2756
e 2683 2757
e 2683 2758
e 2683 2759
e 2683 2760
e 2683 2761
e 2683 2762
e 2763 2764
e 2763 2765
e 2763 2766
e 2763 2767
e 2763 2768
e 2763 2769
e 2763 2770
e 2763 2771
e 2763 2772
e 2763 2773
e 2763 2774
e 2763 2775
e 2763 2776
e 2763 2777
e 2763 2778
e 2763 2779
e 2763 2780
e 2763 2781
e 2763 2782
e 2763 2783
e 2763 2784
e 2763 2785
e 2763 2786
e 2763 2787
e 2763 2788
e 2763 2789
e 2763 2790
e 2763 2791
e 2792 2793
e 2792 2794
e 2792 2795
e 2792 2796
e 2792 2797
e 2792 2798
e 2792 2799
e 2792 2800
e 2792 2801
e 2792 2802
e 2792 2803
e 2792 2804
e 2792 2805
e 2792 2806
e 2792 2807
e 2792 2808
e 2792 2809
e 2792 2810
e 2792 2811
e 2792 2812
e 2792 2813
e 2792 2814
e 2792 2815
e 2792 2816
e 2792 2817
e 2792 2818
e 2792 2819
e 2792 2820
e 2792 2821
e 2792 2822
e 2792 2823
e 2792 2824
e 2792 2825
e 2792 2826
e 2792 2827
e 2792 2828
e 2792 2829
e 2792 2830
e 2792 2831
e 2792 2832
e 2792 2833
e 2792 2834
e 2792 2835
e 2792 2836
e 2792 2837
e 2792 2838
e 2792 2839
e 2792 2840
e 2792 2841
e 2792 2842
e 2792 2843
e 2792 2844
e 2792 2845
e 2792 2846
e 2792 2847
e 2792 2848
e 2792 2849
e 2792 2850
e 2792 2851
e 2792 2852
e 2792 2853
e 2792 2854
e 2792 2855
e 2792 2856
e 2792 2857
e 2792 2858
e 2792 2859
e 2860 2861
e 2860 2862
e 2860 2863
e 2860 2864
e 2860 2865
e 2860 2866
e 2860 2867
e 2860 2868
e 2860 2869
e 2860 2870
e 2860 2871
e 2860 2872
e 2860 2873
e 2860 2874
e 2860 2875
e 2860 2876
e 2860 2877
e 2860 2878
e 2860 2879
e 2860 2880
e 2860 2881
e 2860 2882
e 2860 2883
e 2860 2884
e 2860 2885
e 2860 2886
e 2860 2887
e 2860 2888
e 2860 2889
e 2860 2890
e 2860 2891
e 2860 2892
e 2860 2893
e 2860 2894
e 2860 2895
e 2860 2896
e 2860 2897
e 2860 2898
e 2860 2899
e 2860 2900
e 2860 2901
e 2860 2902
e 2860 2903
e 2860 2904
e 2860 2905
e 2860 2906
e 2860 2907
e 2860 2908
e 2860 2909
e 2860 2910
e 2860 2911
e 2860 2912
e 2860 2913
e 2860 2914
e 2860 2915
e 2860 2916
e 2860 2917
e 2860 2918
e 2860 2919
e 2860 2920
e 2860 2921
e 2860 2922
e 2860 2923
e 2860 2924
e 2860 2925
e 2860 2926
e 2860 2927
e 2860 2928
e 2860 2929
e 2860 2930
e 2860 2931
e 2860 2932
e 2860 2933
e 2860 2934
e 2860 2935
e 2860 2936
e 2860 2937
e 2860 2938
e 2939 2940
e 2939 2941
e 2939 2942
e 2939 2943
e 2939 2944
e 2939 2945
e 2939 2946
e 2939 2947
e 2939 2948
e 2939 2949
e 2939 2950
e 2939 2951
e 2939 2952
e 2939 2953
e 2939 2954
e 2939 2955
e 2939 2956
e 2939 2957
e 2939 2958
e 2939 2959
e 2939 2960
e 2939 2961
e 2939 2962
e 2939 2963
e 2939 2964
e 2939 2965
e 2939 2966
e 2939 2967
e 2939 2968
e 2939 2969
e 2939 2970
e 2971 2972
e 2971 2973
e 2971 2974
e 2971 2975
e 2971 2976
e 2971 2977
e 2971 2978
e 2971 2979
e 2971 2980
e 2971 2981
e 2971 2982
e 2971 2983
e 2971 2984
e 2971 2985
e 2971 2986
e 2971 2987
e 2971 2988
e 2971 2989
e 2971 2990
e 2971 2991
e 2971 2992
e 2971 2993
e 2971 2994
e 2971 2995
e 2971 2996
e 2971 2997
e 2971 2998
e 2971 2999
e 2971 3000
e 2971 3001
e 2971 3002
e 2971 3003
e 2971 3004
e 2971 3005
e 2971 3006
e 2971 3007
e 2971 3008
e 2971 3009
e 2971 3010
e 2971 3011
e 2971 3012
e 2971 3013
e 2971 3014
e 2971 3015
e 2971 3016
e 2971 3017
e 2971 3018
e 2971 3019
e 2971 3020
e 2971 3021
e 2971 3022
e 2971 3023
e 2971 3024
e 3025 3026
e 3025 3027
e 3025 3028
e 3025 3029
e 3025 3030
e 3025 3031
e 3025 3032
e 3025 3033
e 3025 3034
e 3025 3035
e 3025 3036
e 3025 3037
e 3025 3038
e 3025 3039
e 3025 3040
e 3025 3041
e 3025 3042
e 3025 3043
e 3025 3044
e 3025 3045
e 3025 3046
e 3025 3047
e 3025 3048
e 3025 3049
e 3025 3050
e 3025 3051
e 3025 3052
e 3025 3053
e 3025 3054
e 3025 3055
e 3025 3056
e 3025 3057
e 3025 3058
e 3025 3059
e 3025 3060
e 3025 3061
e 3025 3062
e 3025 3063
e 3025 3064
e 3025 3065
e 3025 3066
e 3025 3067
e 3025 3068
e 3025 3069
e 3025 3070
e 3025 3071
e 3025 3072
e 3025 3073
e 3025 3074
e 3025 3075
e 3025 3076
e 3025 3077
e 3025 3078
e 3025 3079
e 3025 3080
e 3025 3081
e 3025 3082
e 3025 3083
e 3025 3084
e 3025 3085
e 3025 3086
e 3025 3087
e 3025 3088
e 3025 3089
e 3025 3090
e 3025 3091
e 3025 3092
e 3025 3093
e 3025 3094
e 3025 3095
e 3025 3096
e 3025 3097
e 3025 3098
e 3025 3099
e 3025 3100
e 3025 3101
e 3025 3102
e 3103 3104
e 3103 3105
e 3103 3106
e 3103 3107
e 3103 3108
e 3103 3109
e 3103 3110
e 3103 3111
e 3103 3112
e 3103 3113
e 3103 3114
e 3103 3115
e 3103 3116
e 3103 3117
